c CNF file corresponding to a (partial) station packing problem.
p cnf 6063 213
1 2 3 4 5 6 7 8 9 10 11 12 13 14 0
-1 -2 0
-1 -3 0
-1 -4 0
-1 -5 0
-1 -6 0
-1 -7 0
-1 -8 0
-1 -9 0
-1 -10 0
-1 -11 0
-1 -12 0
-1 -13 0
-1 -14 0
-2 -3 0
-2 -4 0
-2 -5 0
-2 -6 0
-2 -7 0
-2 -8 0
-2 -9 0
-2 -10 0
-2 -11 0
-2 -12 0
-2 -13 0
-2 -14 0
-3 -4 0
-3 -5 0
-3 -6 0
-3 -7 0
-3 -8 0
-3 -9 0
-3 -10 0
-3 -11 0
-3 -12 0
-3 -13 0
-3 -14 0
-4 -5 0
-4 -6 0
-4 -7 0
-4 -8 0
-4 -9 0
-4 -10 0
-4 -11 0
-4 -12 0
-4 -13 0
-4 -14 0
-5 -6 0
-5 -7 0
-5 -8 0
-5 -9 0
-5 -10 0
-5 -11 0
-5 -12 0
-5 -13 0
-5 -14 0
-6 -7 0
-6 -8 0
-6 -9 0
-6 -10 0
-6 -11 0
-6 -12 0
-6 -13 0
-6 -14 0
-7 -8 0
-7 -9 0
-7 -10 0
-7 -11 0
-7 -12 0
-7 -13 0
-7 -14 0
-8 -9 0
-8 -10 0
-8 -11 0
-8 -12 0
-8 -13 0
-8 -14 0
-9 -10 0
-9 -11 0
-9 -12 0
-9 -13 0
-9 -14 0
-10 -11 0
-10 -12 0
-10 -13 0
-10 -14 0
-11 -12 0
-11 -13 0
-11 -14 0
-12 -13 0
-12 -14 0
-13 -14 0
6048 6049 6050 6051 6052 6053 6054 6055 6056 6057 6058 6059 6060 6061 6062 6063 0
-6048 -6049 0
-6048 -6050 0
-6048 -6051 0
-6048 -6052 0
-6048 -6053 0
-6048 -6054 0
-6048 -6055 0
-6048 -6056 0
-6048 -6057 0
-6048 -6058 0
-6048 -6059 0
-6048 -6060 0
-6048 -6061 0
-6048 -6062 0
-6048 -6063 0
-6049 -6050 0
-6049 -6051 0
-6049 -6052 0
-6049 -6053 0
-6049 -6054 0
-6049 -6055 0
-6049 -6056 0
-6049 -6057 0
-6049 -6058 0
-6049 -6059 0
-6049 -6060 0
-6049 -6061 0
-6049 -6062 0
-6049 -6063 0
-6050 -6051 0
-6050 -6052 0
-6050 -6053 0
-6050 -6054 0
-6050 -6055 0
-6050 -6056 0
-6050 -6057 0
-6050 -6058 0
-6050 -6059 0
-6050 -6060 0
-6050 -6061 0
-6050 -6062 0
-6050 -6063 0
-6051 -6052 0
-6051 -6053 0
-6051 -6054 0
-6051 -6055 0
-6051 -6056 0
-6051 -6057 0
-6051 -6058 0
-6051 -6059 0
-6051 -6060 0
-6051 -6061 0
-6051 -6062 0
-6051 -6063 0
-6052 -6053 0
-6052 -6054 0
-6052 -6055 0
-6052 -6056 0
-6052 -6057 0
-6052 -6058 0
-6052 -6059 0
-6052 -6060 0
-6052 -6061 0
-6052 -6062 0
-6052 -6063 0
-6053 -6054 0
-6053 -6055 0
-6053 -6056 0
-6053 -6057 0
-6053 -6058 0
-6053 -6059 0
-6053 -6060 0
-6053 -6061 0
-6053 -6062 0
-6053 -6063 0
-6054 -6055 0
-6054 -6056 0
-6054 -6057 0
-6054 -6058 0
-6054 -6059 0
-6054 -6060 0
-6054 -6061 0
-6054 -6062 0
-6054 -6063 0
-6055 -6056 0
-6055 -6057 0
-6055 -6058 0
-6055 -6059 0
-6055 -6060 0
-6055 -6061 0
-6055 -6062 0
-6055 -6063 0
-6056 -6057 0
-6056 -6058 0
-6056 -6059 0
-6056 -6060 0
-6056 -6061 0
-6056 -6062 0
-6056 -6063 0
-6057 -6058 0
-6057 -6059 0
-6057 -6060 0
-6057 -6061 0
-6057 -6062 0
-6057 -6063 0
-6058 -6059 0
-6058 -6060 0
-6058 -6061 0
-6058 -6062 0
-6058 -6063 0
-6059 -6060 0
-6059 -6061 0
-6059 -6062 0
-6059 -6063 0
-6060 -6061 0
-6060 -6062 0
-6060 -6063 0
-6061 -6062 0
-6061 -6063 0
-6062 -6063 0
